(set-info :origin "SVCOMP13 benchmarks generated by Arie Gurfinkel")
(set-info :status sat)
(set-logic HORN)
(declare-fun cp-rel-entry () Bool)
(declare-fun cp-rel-bb2.i.i26.i.i () Bool)
(declare-fun cp-rel-bb1.i.i (Real Real Real Real Real) Bool)
(assert |cp-rel-entry|)
(assert (forall ((?A Real) (?B Real) (?C Real) (?D Real) (?E Real) (?F Bool) )(let (($x170426 (and |cp-rel-entry| (<= ?E 0.0) (>= ?D 1.0) (<= ?D 1.0) (>= ?C 0.0) (<= ?C 0.0) (>= ?B 1.0) (<= ?B 1.0) (>= ?A 0.0) (<= ?A 0.0) (= ?F true) (>= ?E 0.0))))
(=> $x170426 (|cp-rel-bb1.i.i| ?A ?B ?C ?D ?E))))
)
(assert (forall ((?A Real) (?B Real) (?C Real) (?D Real) (?E Real) (?F Real) (?G Real) (?H Real) (?I Real) (?J Real) (?K Bool) (?L Bool) (?M Bool) (?N Bool) (?O Bool) (?P Bool) (?Q Real) (?R Real) (?S Bool) (?T Bool) (?U Bool) (?V Bool) (?W Bool) (?X Bool) (?Y Real) (?Z Real) (?A1 Bool) (?B1 Bool) (?C1 Bool) (?D1 Bool) (?E1 Bool) (?F1 Bool) (?G1 Bool) (?H1 Real) (?I1 Bool) (?J1 Bool) (?K1 Bool) (?L1 Bool) (?M1 Bool) (?N1 Bool) (?O1 Real) (?P1 Real) (?Q1 Bool) (?R1 Bool) (?S1 Bool) (?T1 Bool) (?U1 Bool) (?V1 Bool) (?W1 Bool) (?X1 Bool) (?Y1 Bool) (?Z1 Bool) (?A2 Bool) (?B2 Bool) (?C2 Bool) (?D2 Real) (?E2 Real) (?F2 Real) (?G2 Real) (?H2 Bool) (?I2 Bool) (?J2 Bool) (?K2 Bool) (?L2 Bool) (?M2 Bool) (?N2 Bool) (?O2 Bool) (?P2 Real) (?Q2 Bool) (?R2 Real) (?S2 Real) (?T2 Bool) (?U2 Real) (?V2 Real) (?W2 Bool) (?X2 Real) (?Y2 Bool) (?Z2 Bool) (?A3 Bool) )(let (($x231231 (|cp-rel-bb1.i.i| ?F ?G ?H ?I ?J)))
(let (($x222179 (or (not ?K) (and ?L ?M (not ?N)))))
(let (($x422023 (or (not ?K) ?M)))
(let (($x255551 (not ?O)))
(let (($x455432 (or $x255551 (and ?K ?P (<= ?Q ?R) (>= ?Q ?R)) (and ?L ?S ?N (<= ?Q ?B) (>= ?Q ?B)))))
(let (($x868497 (or $x255551 (and ?P (not ?S)) (and ?S (not ?P)))))
(let (($x610352 (or (not ?T) (and ?O ?U (not ?V)))))
(let (($x279498 (or (not ?T) ?U)))
(let (($x815464 (not ?W)))
(let (($x487873 (or $x815464 (and ?T ?X (<= ?Y ?Z) (>= ?Y ?Z)) (and ?O ?A1 ?V (<= ?Y ?A) (>= ?Y ?A)))))
(let (($x301107 (or $x815464 (and ?X (not ?A1)) (and ?A1 (not ?X)))))
(let (($x222102 (or (not ?B1) (and ?W ?C1 ?D1))))
(let (($x132445 (or (not ?B1) ?C1)))
(let (($x137633 (not ?E1)))
(let (($x629174 (or $x137633 (and ?B1 ?F1 ?G1 (<= ?H1 ?D) (>= ?H1 ?D)) (and ?W ?I1 (not ?D1) (<= ?H1 1.0) (>= ?H1 1.0)))))
(let (($x389028 (or $x137633 (and ?F1 (not ?I1)) (and ?I1 (not ?F1)))))
(let (($x633577 (or (not ?J1) (and ?E1 ?K1 (not ?L1)))))
(let (($x261815 (or (not ?J1) ?K1)))
(let (($x428810 (or (not ?M1) (and ?J1 ?N1 (<= ?O1 ?P1) (>= ?O1 ?P1)) (and ?E1 ?Q1 ?L1 (<= ?O1 ?Q) (>= ?O1 ?Q)))))
(let (($x797448 (or (not ?M1) (and ?N1 (not ?Q1)) (and ?Q1 (not ?N1)))))
(let (($x646416 (or (not ?R1) (and ?M1 ?S1 (not ?T1)))))
(let (($x96112 (or (not ?R1) ?S1)))
(let (($x175324 (or (not ?U1) (and ?R1 ?V1 ?L1))))
(let (($x846512 (or (not ?U1) ?V1)))
(let (($x325477 (or (not ?W1) (and ?R1 ?X1 (not ?L1)))))
(let (($x166164 (or (not ?W1) ?X1)))
(let (($x238311 (or (not ?Y1) (and ?W1 ?Z1 ?A2))))
(let (($x120532 (or (not ?Y1) ?Z1)))
(let (($x390067 (and ?B1 ?K2 (not ?G1) (<= ?D2 0.0) (>= ?D2 0.0) (<= ?E2 ?Q) (>= ?E2 ?Q) (<= ?F2 0.0) (>= ?F2 0.0))))
(let (($x912013 (>= ?E2 ?O1)))
(let (($x837190 (<= ?E2 ?O1)))
(let (($x315298 (>= ?D2 ?H1)))
(let (($x865308 (<= ?D2 ?H1)))
(let (($x380479 (and ?M1 ?J2 ?T1 $x865308 $x315298 $x837190 $x912013 (<= ?F2 ?E) (>= ?F2 ?E))))
(let (($x850276 (and ?W1 ?I2 (not ?A2) $x865308 $x315298 $x837190 $x912013 (<= ?F2 0.0) (>= ?F2 0.0))))
(let (($x317193 (not ?B2)))
(let (($x407840 (or $x317193 (and ?U1 ?C2 $x865308 $x315298 $x837190 $x912013 (<= ?F2 ?G2) (>= ?F2 ?G2)) (and ?Y1 ?H2 $x865308 $x315298 $x837190 $x912013 (<= ?F2 ?E) (>= ?F2 ?E)) $x850276 $x380479 $x390067)))
(let (($x55163 (or $x317193 (and ?C2 (not ?H2) (not ?I2) (not ?J2) (not ?K2)) (and ?H2 (not ?C2) (not ?I2) (not ?J2) (not ?K2)) (and ?I2 (not ?C2) (not ?H2) (not ?J2) (not ?K2)) (and ?J2 (not ?C2) (not ?H2) (not ?I2) (not ?K2)) (and ?K2 (not ?C2) (not ?H2) (not ?I2) (not ?J2)))))
(let (($x528262 (or (not ?L2) (and ?B2 ?M2 (not ?N2)))))
(let (($x158937 (or (not ?L2) ?M2)))
(let (($x293481 (and ?B2 ?N2 (<= ?F ?Y) (>= ?F ?Y) (<= ?G ?E2) (>= ?G ?E2) (<= ?H 0.0) (>= ?H 0.0) (<= ?I ?D2) (>= ?I ?D2) (<= ?J ?F2) (>= ?J ?F2))))
(let (($x577792 (and ?L2 ?O2 (<= ?F ?Y) (>= ?F ?Y) (<= ?G ?E2) (>= ?G ?E2) (<= ?H 1.0) (>= ?H 1.0) (<= ?I ?D2) (>= ?I ?D2) (<= ?J ?F2) (>= ?J ?F2))))
(let (($x344308 (= ?N (= ?P2 0.0))))
(let (($x240613 (= ?R2 (ite ?Q2 1.0 0.0))))
(let (($x572795 (= ?V (= ?S2 0.0))))
(let (($x286748 (= ?Z (ite ?T2 1.0 0.0))))
(let (($x77731 (= ?D1 (= ?U2 0.0))))
(let (($x819409 (= ?G1 (= ?V2 0.0))))
(let (($x418842 (= ?W2 (not (<= ?Q 0.0)))))
(let (($x556361 (= ?X2 (+ (~ 1.0) ?Q))))
(let (($x358268 (= ?P1 (ite ?W2 ?X2 ?Q))))
(let (($x463487 (= ?T1 (= ?H1 0.0))))
(let (($x89463 (= ?Y2 (not (<= ?O1 1.0)))))
(let (($x36993 (= ?A2 (= ?O1 0.0))))
(let (($x438483 (= ?Z2 (= ?Y 0.0))))
(let (($x274010 (= ?A3 (= ?F2 0.0))))
(let (($x196134 (= ?N2 (or ?A3 ?Z2))))
(let (($x327425 (and (|cp-rel-bb1.i.i| ?A ?B ?C ?D ?E) $x196134 $x274010 $x438483 $x36993 (= ?G2 (ite ?Y2 1.0 ?E)) $x89463 $x463487 $x358268 $x556361 $x418842 (= ?L1 (= ?E 0.0)) $x819409 $x77731 $x286748 (= ?T2 (= ?A 0.0)) $x572795 (= ?R (+ ?R2 ?B)) $x240613 (= ?Q2 (not (<= 2.0 ?B))) $x344308 (or $x577792 $x293481) $x158937 $x528262 $x55163 $x407840 $x120532 $x238311 $x166164 $x325477 $x846512 $x175324 $x96112 $x646416 $x797448 $x428810 $x261815 $x633577 $x389028 $x629174 $x132445 $x222102 $x301107 $x487873 $x279498 $x610352 $x868497 $x455432 $x422023 $x222179 (= ?O2 (= ?C 0.0)))))
(=> $x327425 $x231231))))))))))))))))))))))))))))))))))))))))))))))))))))))))))))
)
(assert (forall ((?A Real) (?B Real) (?C Real) (?D Real) (?E Real) (?F Bool) (?G Bool) (?H Bool) (?I Bool) (?J Bool) (?K Bool) (?L Real) (?M Real) (?N Bool) (?O Bool) (?P Bool) (?Q Bool) (?R Bool) (?S Bool) (?T Real) (?U Real) (?V Bool) (?W Bool) (?X Bool) (?Y Bool) (?Z Bool) (?A1 Bool) (?B1 Bool) (?C1 Real) (?D1 Bool) (?E1 Bool) (?F1 Bool) (?G1 Bool) (?H1 Bool) (?I1 Bool) (?J1 Real) (?K1 Real) (?L1 Bool) (?M1 Bool) (?N1 Bool) (?O1 Bool) (?P1 Bool) (?Q1 Bool) (?R1 Bool) (?S1 Bool) (?T1 Bool) (?U1 Bool) (?V1 Bool) (?W1 Bool) (?X1 Bool) (?Y1 Real) (?Z1 Real) (?A2 Real) (?B2 Real) (?C2 Bool) (?D2 Bool) (?E2 Bool) (?F2 Bool) (?G2 Bool) (?H2 Bool) (?I2 Bool) (?J2 Bool) (?K2 Real) (?L2 Bool) (?M2 Real) (?N2 Real) (?O2 Bool) (?P2 Real) (?Q2 Real) (?R2 Bool) (?S2 Real) (?T2 Bool) (?U2 Bool) (?V2 Bool) )(let (($x222179 (or (not ?F) (and ?G ?H (not ?I)))))
(let (($x422023 (or (not ?F) ?H)))
(let (($x255551 (not ?J)))
(let (($x335161 (or $x255551 (and ?F ?K (<= ?L ?M) (>= ?L ?M)) (and ?G ?N ?I (<= ?L ?B) (>= ?L ?B)))))
(let (($x868497 (or $x255551 (and ?K (not ?N)) (and ?N (not ?K)))))
(let (($x610352 (or (not ?O) (and ?J ?P (not ?Q)))))
(let (($x279498 (or (not ?O) ?P)))
(let (($x815464 (not ?R)))
(let (($x136298 (or $x815464 (and ?O ?S (<= ?T ?U) (>= ?T ?U)) (and ?J ?V ?Q (<= ?T ?A) (>= ?T ?A)))))
(let (($x301107 (or $x815464 (and ?S (not ?V)) (and ?V (not ?S)))))
(let (($x222102 (or (not ?W) (and ?R ?X ?Y))))
(let (($x132445 (or (not ?W) ?X)))
(let (($x137633 (not ?Z)))
(let (($x585156 (or $x137633 (and ?W ?A1 ?B1 (<= ?C1 ?D) (>= ?C1 ?D)) (and ?R ?D1 (not ?Y) (<= ?C1 1.0) (>= ?C1 1.0)))))
(let (($x389028 (or $x137633 (and ?A1 (not ?D1)) (and ?D1 (not ?A1)))))
(let (($x633577 (or (not ?E1) (and ?Z ?F1 (not ?G1)))))
(let (($x261815 (or (not ?E1) ?F1)))
(let (($x428810 (or (not ?H1) (and ?E1 ?I1 (<= ?J1 ?K1) (>= ?J1 ?K1)) (and ?Z ?L1 ?G1 (<= ?J1 ?L) (>= ?J1 ?L)))))
(let (($x797448 (or (not ?H1) (and ?I1 (not ?L1)) (and ?L1 (not ?I1)))))
(let (($x646416 (or (not ?M1) (and ?H1 ?N1 (not ?O1)))))
(let (($x96112 (or (not ?M1) ?N1)))
(let (($x175324 (or (not ?P1) (and ?M1 ?Q1 ?G1))))
(let (($x846512 (or (not ?P1) ?Q1)))
(let (($x325477 (or (not ?R1) (and ?M1 ?S1 (not ?G1)))))
(let (($x166164 (or (not ?R1) ?S1)))
(let (($x238311 (or (not ?T1) (and ?R1 ?U1 ?V1))))
(let (($x120532 (or (not ?T1) ?U1)))
(let (($x390067 (and ?W ?F2 (not ?B1) (<= ?Y1 0.0) (>= ?Y1 0.0) (<= ?Z1 ?L) (>= ?Z1 ?L) (<= ?A2 0.0) (>= ?A2 0.0))))
(let (($x912013 (>= ?Z1 ?J1)))
(let (($x837190 (<= ?Z1 ?J1)))
(let (($x315298 (>= ?Y1 ?C1)))
(let (($x865308 (<= ?Y1 ?C1)))
(let (($x417696 (and ?H1 ?E2 ?O1 $x865308 $x315298 $x837190 $x912013 (<= ?A2 ?E) (>= ?A2 ?E))))
(let (($x850276 (and ?R1 ?D2 (not ?V1) $x865308 $x315298 $x837190 $x912013 (<= ?A2 0.0) (>= ?A2 0.0))))
(let (($x317193 (not ?W1)))
(let (($x384775 (or $x317193 (and ?P1 ?X1 $x865308 $x315298 $x837190 $x912013 (<= ?A2 ?B2) (>= ?A2 ?B2)) (and ?T1 ?C2 $x865308 $x315298 $x837190 $x912013 (<= ?A2 ?E) (>= ?A2 ?E)) $x850276 $x417696 $x390067)))
(let (($x55163 (or $x317193 (and ?X1 (not ?C2) (not ?D2) (not ?E2) (not ?F2)) (and ?C2 (not ?X1) (not ?D2) (not ?E2) (not ?F2)) (and ?D2 (not ?X1) (not ?C2) (not ?E2) (not ?F2)) (and ?E2 (not ?X1) (not ?C2) (not ?D2) (not ?F2)) (and ?F2 (not ?X1) (not ?C2) (not ?D2) (not ?E2)))))
(let (($x528262 (or (not ?G2) (and ?W1 ?H2 (not ?I2)))))
(let (($x158937 (or (not ?G2) ?H2)))
(let (($x344308 (= ?I (= ?K2 0.0))))
(let (($x240613 (= ?M2 (ite ?L2 1.0 0.0))))
(let (($x572795 (= ?Q (= ?N2 0.0))))
(let (($x286748 (= ?U (ite ?O2 1.0 0.0))))
(let (($x77731 (= ?Y (= ?P2 0.0))))
(let (($x819409 (= ?B1 (= ?Q2 0.0))))
(let (($x418842 (= ?R2 (not (<= ?L 0.0)))))
(let (($x556361 (= ?S2 (+ (~ 1.0) ?L))))
(let (($x358268 (= ?K1 (ite ?R2 ?S2 ?L))))
(let (($x463487 (= ?O1 (= ?C1 0.0))))
(let (($x89463 (= ?T2 (not (<= ?J1 1.0)))))
(let (($x36993 (= ?V1 (= ?J1 0.0))))
(let (($x438483 (= ?U2 (= ?T 0.0))))
(let (($x274010 (= ?V2 (= ?A2 0.0))))
(let (($x196134 (= ?I2 (or ?V2 ?U2))))
(let (($x231231 (|cp-rel-bb1.i.i| ?A ?B ?C ?D ?E)))
(let (($x334540 (and $x231231 $x196134 $x274010 $x438483 $x36993 (= ?B2 (ite ?T2 1.0 ?E)) $x89463 $x463487 $x358268 $x556361 $x418842 (= ?G1 (= ?E 0.0)) $x819409 $x77731 $x286748 (= ?O2 (= ?A 0.0)) $x572795 (= ?M (+ ?M2 ?B)) $x240613 (= ?L2 (not (<= 2.0 ?B))) $x344308 (not (= ?J2 true)) (= ?G2 true) $x158937 $x528262 $x55163 $x384775 $x120532 $x238311 $x166164 $x325477 $x846512 $x175324 $x96112 $x646416 $x797448 $x428810 $x261815 $x633577 $x389028 $x585156 $x132445 $x222102 $x301107 $x136298 $x279498 $x610352 $x868497 $x335161 $x422023 $x222179 (= ?J2 (= ?C 0.0)))))
(=> $x334540 |cp-rel-bb2.i.i26.i.i|))))))))))))))))))))))))))))))))))))))))))))))))))))))))))
)
(assert (not cp-rel-bb2.i.i26.i.i))
(check-sat)
